letting numberLocations be  33
letting costs be function (
(0,0) --> 0,
(0,1) --> 49,
(0,2) --> 65,
(0,3) --> 66,
(0,4) --> 68,
(0,5) --> 42,
(0,6) --> 43,
(0,7) --> 65,
(0,8) --> 69,
(0,9) --> 69,
(0,10) --> 77,
(0,11) --> 43,
(0,12) --> 63,
(0,13) --> 54,
(0,14) --> 69,
(0,15) --> 47,
(0,16) --> 68,
(0,17) --> 47,
(0,18) --> 56,
(0,19) --> 52,
(0,20) --> 69,
(0,21) --> 65,
(0,22) --> 72,
(0,23) --> 77,
(0,24) --> 71,
(0,25) --> 46,
(0,26) --> 69,
(0,27) --> 66,
(0,28) --> 52,
(0,29) --> 68,
(0,30) --> 57,
(0,31) --> 48,
(0,32) --> 73,
(0,33) --> 75,
(1,0) --> 49,
(1,1) --> 0,
(1,2) --> 42,
(1,3) --> 25,
(1,4) --> 40,
(1,5) --> 28,
(1,6) --> 29,
(1,7) --> 41,
(1,8) --> 39,
(1,9) --> 22,
(1,10) --> 46,
(1,11) --> 79,
(1,12) --> 33,
(1,13) --> 35,
(1,14) --> 23,
(1,15) --> 35,
(1,16) --> 21,
(1,17) --> 31,
(1,18) --> 7,
(1,19) --> 3,
(1,20) --> 40,
(1,21) --> 41,
(1,22) --> 46,
(1,23) --> 46,
(1,24) --> 26,
(1,25) --> 27,
(1,26) --> 36,
(1,27) --> 24,
(1,28) --> 34,
(1,29) --> 25,
(1,30) --> 85,
(1,31) --> 32,
(1,32) --> 46,
(1,33) --> 46,
(2,0) --> 65,
(2,1) --> 42,
(2,2) --> 0,
(2,3) --> 24,
(2,4) --> 6,
(2,5) --> 67,
(2,6) --> 69,
(2,7) --> 1,
(2,8) --> 9,
(2,9) --> 35,
(2,10) --> 14,
(2,11) --> 70,
(2,12) --> 10,
(2,13) --> 77,
(2,14) --> 35,
(2,15) --> 75,
(2,16) --> 34,
(2,17) --> 72,
(2,18) --> 45,
(2,19) --> 44,
(2,20) --> 7,
(2,21) --> 1,
(2,22) --> 7,
(2,23) --> 14,
(2,24) --> 31,
(2,25) --> 68,
(2,26) --> 12,
(2,27) --> 26,
(2,28) --> 75,
(2,29) --> 28,
(2,30) --> 67,
(2,31) --> 73,
(2,32) --> 9,
(2,33) --> 10,
(3,0) --> 66,
(3,1) --> 25,
(3,2) --> 24,
(3,3) --> 0,
(3,4) --> 19,
(3,5) --> 53,
(3,6) --> 54,
(3,7) --> 23,
(3,8) --> 17,
(3,9) --> 11,
(3,10) --> 22,
(3,11) --> 84,
(3,12) --> 14,
(3,13) --> 60,
(3,14) --> 11,
(3,15) --> 60,
(3,16) --> 10,
(3,17) --> 57,
(3,18) --> 25,
(3,19) --> 25,
(3,20) --> 19,
(3,21) --> 23,
(3,22) --> 25,
(3,23) --> 22,
(3,24) --> 8,
(3,25) --> 53,
(3,26) --> 13,
(3,27) --> 2,
(3,28) --> 59,
(3,29) --> 4,
(3,30) --> 85,
(3,31) --> 57,
(3,32) --> 24,
(3,33) --> 23,
(4,0) --> 68,
(4,1) --> 40,
(4,2) --> 6,
(4,3) --> 19,
(4,4) --> 0,
(4,5) --> 66,
(4,6) --> 68,
(4,7) --> 5,
(4,8) --> 3,
(4,9) --> 30,
(4,10) --> 9,
(4,11) --> 75,
(4,12) --> 7,
(4,13) --> 75,
(4,14) --> 31,
(4,15) --> 74,
(4,16) --> 29,
(4,17) --> 71,
(4,18) --> 42,
(4,19) --> 41,
(4,20) --> 1,
(4,21) --> 5,
(4,22) --> 6,
(4,23) --> 9,
(4,24) --> 26,
(4,25) --> 67,
(4,26) --> 6,
(4,27) --> 22,
(4,28) --> 74,
(4,29) --> 23,
(4,30) --> 73,
(4,31) --> 72,
(4,32) --> 6,
(4,33) --> 7,
(5,0) --> 42,
(5,1) --> 28,
(5,2) --> 67,
(5,3) --> 53,
(5,4) --> 66,
(5,5) --> 0,
(5,6) --> 2,
(5,7) --> 66,
(5,8) --> 66,
(5,9) --> 48,
(5,10) --> 73,
(5,11) --> 82,
(5,12) --> 59,
(5,13) --> 13,
(5,14) --> 49,
(5,15) --> 8,
(5,16) --> 48,
(5,17) --> 6,
(5,18) --> 30,
(5,19) --> 28,
(5,20) --> 66,
(5,21) --> 66,
(5,22) --> 72,
(5,23) --> 73,
(5,24) --> 53,
(5,25) --> 4,
(5,26) --> 63,
(5,27) --> 51,
(5,28) --> 11,
(5,29) --> 52,
(5,30) --> 93,
(5,31) --> 7,
(5,32) --> 72,
(5,33) --> 73,
(6,0) --> 43,
(6,1) --> 29,
(6,2) --> 69,
(6,3) --> 54,
(6,4) --> 68,
(6,5) --> 2,
(6,6) --> 0,
(6,7) --> 68,
(6,8) --> 67,
(6,9) --> 50,
(6,10) --> 75,
(6,11) --> 84,
(6,12) --> 61,
(6,13) --> 11,
(6,14) --> 50,
(6,15) --> 6,
(6,16) --> 49,
(6,17) --> 4,
(6,18) --> 31,
(6,19) --> 29,
(6,20) --> 68,
(6,21) --> 68,
(6,22) --> 74,
(6,23) --> 75,
(6,24) --> 54,
(6,25) --> 3,
(6,26) --> 65,
(6,27) --> 53,
(6,28) --> 9,
(6,29) --> 53,
(6,30) --> 95,
(6,31) --> 5,
(6,32) --> 74,
(6,33) --> 74,
(7,0) --> 65,
(7,1) --> 41,
(7,2) --> 1,
(7,3) --> 23,
(7,4) --> 5,
(7,5) --> 66,
(7,6) --> 68,
(7,7) --> 0,
(7,8) --> 8,
(7,9) --> 33,
(7,10) --> 13,
(7,11) --> 71,
(7,12) --> 9,
(7,13) --> 75,
(7,14) --> 34,
(7,15) --> 74,
(7,16) --> 33,
(7,17) --> 71,
(7,18) --> 44,
(7,19) --> 42,
(7,20) --> 6,
(7,21) --> 0,
(7,22) --> 7,
(7,23) --> 13,
(7,24) --> 30,
(7,25) --> 67,
(7,26) --> 11,
(7,27) --> 25,
(7,28) --> 74,
(7,29) --> 26,
(7,30) --> 68,
(7,31) --> 72,
(7,32) --> 8,
(7,33) --> 10,
(8,0) --> 69,
(8,1) --> 39,
(8,2) --> 9,
(8,3) --> 17,
(8,4) --> 3,
(8,5) --> 66,
(8,6) --> 67,
(8,7) --> 8,
(8,8) --> 0,
(8,9) --> 27,
(8,10) --> 8,
(8,11) --> 78,
(8,12) --> 7,
(8,13) --> 74,
(8,14) --> 28,
(8,15) --> 73,
(8,16) --> 27,
(8,17) --> 70,
(8,18) --> 41,
(8,19) --> 40,
(8,20) --> 2,
(8,21) --> 8,
(8,22) --> 8,
(8,23) --> 8,
(8,24) --> 23,
(8,25) --> 66,
(8,26) --> 4,
(8,27) --> 19,
(8,28) --> 73,
(8,29) --> 20,
(8,30) --> 76,
(8,31) --> 71,
(8,32) --> 7,
(8,33) --> 7,
(9,0) --> 69,
(9,1) --> 22,
(9,2) --> 35,
(9,3) --> 11,
(9,4) --> 30,
(9,5) --> 48,
(9,6) --> 50,
(9,7) --> 33,
(9,8) --> 27,
(9,9) --> 0,
(9,10) --> 32,
(9,11) --> 91,
(9,12) --> 25,
(9,13) --> 53,
(9,14) --> 1,
(9,15) --> 55,
(9,16) --> 1,
(9,17) --> 51,
(9,18) --> 19,
(9,19) --> 21,
(9,20) --> 29,
(9,21) --> 33,
(9,22) --> 36,
(9,23) --> 32,
(9,24) --> 5,
(9,25) --> 47,
(9,26) --> 24,
(9,27) --> 8,
(9,28) --> 52,
(9,29) --> 7,
(9,30) --> 94,
(9,31) --> 52,
(9,32) --> 34,
(9,33) --> 34,
(10,0) --> 77,
(10,1) --> 46,
(10,2) --> 14,
(10,3) --> 22,
(10,4) --> 9,
(10,5) --> 73,
(10,6) --> 75,
(10,7) --> 13,
(10,8) --> 8,
(10,9) --> 32,
(10,10) --> 0,
(10,11) --> 84,
(10,12) --> 15,
(10,13) --> 81,
(10,14) --> 32,
(10,15) --> 81,
(10,16) --> 32,
(10,17) --> 78,
(10,18) --> 47,
(10,19) --> 47,
(10,20) --> 8,
(10,21) --> 13,
(10,22) --> 8,
(10,23) --> 0,
(10,24) --> 27,
(10,25) --> 74,
(10,26) --> 10,
(10,27) --> 25,
(10,28) --> 80,
(10,29) --> 25,
(10,30) --> 80,
(10,31) --> 79,
(10,32) --> 6,
(10,33) --> 4,
(11,0) --> 43,
(11,1) --> 79,
(11,2) --> 70,
(11,3) --> 84,
(11,4) --> 75,
(11,5) --> 82,
(11,6) --> 84,
(11,7) --> 71,
(11,8) --> 78,
(11,9) --> 91,
(11,10) --> 84,
(11,11) --> 0,
(11,12) --> 74,
(11,13) --> 94,
(11,14) --> 92,
(11,15) --> 88,
(11,16) --> 90,
(11,17) --> 88,
(11,18) --> 86,
(11,19) --> 82,
(11,20) --> 76,
(11,21) --> 71,
(11,22) --> 76,
(11,23) --> 84,
(11,24) --> 91,
(11,25) --> 86,
(11,26) --> 79,
(11,27) --> 85,
(11,28) --> 93,
(11,29) --> 87,
(11,30) --> 18,
(11,31) --> 89,
(11,32) --> 78,
(11,33) --> 80,
(12,0) --> 63,
(12,1) --> 33,
(12,2) --> 10,
(12,3) --> 14,
(12,4) --> 7,
(12,5) --> 59,
(12,6) --> 61,
(12,7) --> 9,
(12,8) --> 7,
(12,9) --> 25,
(12,10) --> 15,
(12,11) --> 74,
(12,12) --> 0,
(12,13) --> 68,
(12,14) --> 25,
(12,15) --> 67,
(12,16) --> 24,
(12,17) --> 64,
(12,18) --> 35,
(12,19) --> 35,
(12,20) --> 7,
(12,21) --> 9,
(12,22) --> 13,
(12,23) --> 15,
(12,24) --> 22,
(12,25) --> 60,
(12,26) --> 6,
(12,27) --> 16,
(12,28) --> 67,
(12,29) --> 18,
(12,30) --> 73,
(12,31) --> 65,
(12,32) --> 13,
(12,33) --> 13,
(13,0) --> 54,
(13,1) --> 35,
(13,2) --> 77,
(13,3) --> 60,
(13,4) --> 75,
(13,5) --> 13,
(13,6) --> 11,
(13,7) --> 75,
(13,8) --> 74,
(13,9) --> 53,
(13,10) --> 81,
(13,11) --> 94,
(13,12) --> 68,
(13,13) --> 0,
(13,14) --> 53,
(13,15) --> 7,
(13,16) --> 53,
(13,17) --> 6,
(13,18) --> 35,
(13,19) --> 34,
(13,20) --> 75,
(13,21) --> 75,
(13,22) --> 81,
(13,23) --> 81,
(13,24) --> 58,
(13,25) --> 9,
(13,26) --> 71,
(13,27) --> 58,
(13,28) --> 1,
(13,29) --> 58,
(13,30) --> 106,
(13,31) --> 6,
(13,32) --> 81,
(13,33) --> 81,
(14,0) --> 69,
(14,1) --> 23,
(14,2) --> 35,
(14,3) --> 11,
(14,4) --> 31,
(14,5) --> 49,
(14,6) --> 50,
(14,7) --> 34,
(14,8) --> 28,
(14,9) --> 1,
(14,10) --> 32,
(14,11) --> 92,
(14,12) --> 25,
(14,13) --> 53,
(14,14) --> 0,
(14,15) --> 55,
(14,16) --> 2,
(14,17) --> 51,
(14,18) --> 19,
(14,19) --> 21,
(14,20) --> 30,
(14,21) --> 34,
(14,22) --> 36,
(14,23) --> 32,
(14,24) --> 5,
(14,25) --> 48,
(14,26) --> 24,
(14,27) --> 9,
(14,28) --> 53,
(14,29) --> 8,
(14,30) --> 95,
(14,31) --> 52,
(14,32) --> 35,
(14,33) --> 34,
(15,0) --> 47,
(15,1) --> 35,
(15,2) --> 75,
(15,3) --> 60,
(15,4) --> 74,
(15,5) --> 8,
(15,6) --> 6,
(15,7) --> 74,
(15,8) --> 73,
(15,9) --> 55,
(15,10) --> 81,
(15,11) --> 88,
(15,12) --> 67,
(15,13) --> 7,
(15,14) --> 55,
(15,15) --> 0,
(15,16) --> 54,
(15,17) --> 4,
(15,18) --> 36,
(15,19) --> 34,
(15,20) --> 74,
(15,21) --> 74,
(15,22) --> 80,
(15,23) --> 81,
(15,24) --> 59,
(15,25) --> 7,
(15,26) --> 71,
(15,27) --> 58,
(15,28) --> 6,
(15,29) --> 59,
(15,30) --> 100,
(15,31) --> 3,
(15,32) --> 80,
(15,33) --> 80,
(16,0) --> 68,
(16,1) --> 21,
(16,2) --> 34,
(16,3) --> 10,
(16,4) --> 29,
(16,5) --> 48,
(16,6) --> 49,
(16,7) --> 33,
(16,8) --> 27,
(16,9) --> 1,
(16,10) --> 32,
(16,11) --> 90,
(16,12) --> 24,
(16,13) --> 53,
(16,14) --> 2,
(16,15) --> 54,
(16,16) --> 0,
(16,17) --> 51,
(16,18) --> 18,
(16,19) --> 20,
(16,20) --> 29,
(16,21) --> 33,
(16,22) --> 35,
(16,23) --> 32,
(16,24) --> 5,
(16,25) --> 47,
(16,26) --> 23,
(16,27) --> 8,
(16,28) --> 52,
(16,29) --> 7,
(16,30) --> 93,
(16,31) --> 52,
(16,32) --> 34,
(16,33) --> 33,
(17,0) --> 47,
(17,1) --> 31,
(17,2) --> 72,
(17,3) --> 57,
(17,4) --> 71,
(17,5) --> 6,
(17,6) --> 4,
(17,7) --> 71,
(17,8) --> 70,
(17,9) --> 51,
(17,10) --> 78,
(17,11) --> 88,
(17,12) --> 64,
(17,13) --> 6,
(17,14) --> 51,
(17,15) --> 4,
(17,16) --> 51,
(17,17) --> 0,
(17,18) --> 32,
(17,19) --> 31,
(17,20) --> 71,
(17,21) --> 71,
(17,22) --> 77,
(17,23) --> 78,
(17,24) --> 56,
(17,25) --> 4,
(17,26) --> 67,
(17,27) --> 55,
(17,28) --> 5,
(17,29) --> 55,
(17,30) --> 100,
(17,31) --> 1,
(17,32) --> 77,
(17,33) --> 77,
(18,0) --> 56,
(18,1) --> 7,
(18,2) --> 45,
(18,3) --> 25,
(18,4) --> 42,
(18,5) --> 30,
(18,6) --> 31,
(18,7) --> 44,
(18,8) --> 41,
(18,9) --> 19,
(18,10) --> 47,
(18,11) --> 86,
(18,12) --> 35,
(18,13) --> 35,
(18,14) --> 19,
(18,15) --> 36,
(18,16) --> 18,
(18,17) --> 32,
(18,18) --> 0,
(18,19) --> 4,
(18,20) --> 42,
(18,21) --> 44,
(18,22) --> 48,
(18,23) --> 47,
(18,24) --> 23,
(18,25) --> 29,
(18,26) --> 37,
(18,27) --> 23,
(18,28) --> 34,
(18,29) --> 23,
(18,30) --> 92,
(18,31) --> 33,
(18,32) --> 48,
(18,33) --> 48,
(19,0) --> 52,
(19,1) --> 3,
(19,2) --> 44,
(19,3) --> 25,
(19,4) --> 41,
(19,5) --> 28,
(19,6) --> 29,
(19,7) --> 42,
(19,8) --> 40,
(19,9) --> 21,
(19,10) --> 47,
(19,11) --> 82,
(19,12) --> 35,
(19,13) --> 34,
(19,14) --> 21,
(19,15) --> 34,
(19,16) --> 20,
(19,17) --> 31,
(19,18) --> 4,
(19,19) --> 0,
(19,20) --> 41,
(19,21) --> 42,
(19,22) --> 48,
(19,23) --> 47,
(19,24) --> 25,
(19,25) --> 27,
(19,26) --> 37,
(19,27) --> 24,
(19,28) --> 33,
(19,29) --> 24,
(19,30) --> 89,
(19,31) --> 32,
(19,32) --> 47,
(19,33) --> 47,
(20,0) --> 69,
(20,1) --> 40,
(20,2) --> 7,
(20,3) --> 19,
(20,4) --> 1,
(20,5) --> 66,
(20,6) --> 68,
(20,7) --> 6,
(20,8) --> 2,
(20,9) --> 29,
(20,10) --> 8,
(20,11) --> 76,
(20,12) --> 7,
(20,13) --> 75,
(20,14) --> 30,
(20,15) --> 74,
(20,16) --> 29,
(20,17) --> 71,
(20,18) --> 42,
(20,19) --> 41,
(20,20) --> 0,
(20,21) --> 6,
(20,22) --> 6,
(20,23) --> 8,
(20,24) --> 25,
(20,25) --> 67,
(20,26) --> 6,
(20,27) --> 21,
(20,28) --> 74,
(20,29) --> 22,
(20,30) --> 74,
(20,31) --> 72,
(20,32) --> 6,
(20,33) --> 6,
(21,0) --> 65,
(21,1) --> 41,
(21,2) --> 1,
(21,3) --> 23,
(21,4) --> 5,
(21,5) --> 66,
(21,6) --> 68,
(21,7) --> 0,
(21,8) --> 8,
(21,9) --> 33,
(21,10) --> 13,
(21,11) --> 71,
(21,12) --> 9,
(21,13) --> 75,
(21,14) --> 34,
(21,15) --> 74,
(21,16) --> 33,
(21,17) --> 71,
(21,18) --> 44,
(21,19) --> 42,
(21,20) --> 6,
(21,21) --> 0,
(21,22) --> 7,
(21,23) --> 13,
(21,24) --> 30,
(21,25) --> 67,
(21,26) --> 11,
(21,27) --> 25,
(21,28) --> 74,
(21,29) --> 26,
(21,30) --> 68,
(21,31) --> 72,
(21,32) --> 8,
(21,33) --> 10,
(22,0) --> 72,
(22,1) --> 46,
(22,2) --> 7,
(22,3) --> 25,
(22,4) --> 6,
(22,5) --> 72,
(22,6) --> 74,
(22,7) --> 7,
(22,8) --> 8,
(22,9) --> 36,
(22,10) --> 8,
(22,11) --> 76,
(22,12) --> 13,
(22,13) --> 81,
(22,14) --> 36,
(22,15) --> 80,
(22,16) --> 35,
(22,17) --> 77,
(22,18) --> 48,
(22,19) --> 48,
(22,20) --> 6,
(22,21) --> 7,
(22,22) --> 0,
(22,23) --> 8,
(22,24) --> 31,
(22,25) --> 73,
(22,26) --> 12,
(22,27) --> 27,
(22,28) --> 80,
(22,29) --> 28,
(22,30) --> 72,
(22,31) --> 78,
(22,32) --> 2,
(22,33) --> 4,
(23,0) --> 77,
(23,1) --> 46,
(23,2) --> 14,
(23,3) --> 22,
(23,4) --> 9,
(23,5) --> 73,
(23,6) --> 75,
(23,7) --> 13,
(23,8) --> 8,
(23,9) --> 32,
(23,10) --> 0,
(23,11) --> 84,
(23,12) --> 15,
(23,13) --> 81,
(23,14) --> 32,
(23,15) --> 81,
(23,16) --> 32,
(23,17) --> 78,
(23,18) --> 47,
(23,19) --> 47,
(23,20) --> 8,
(23,21) --> 13,
(23,22) --> 8,
(23,23) --> 0,
(23,24) --> 27,
(23,25) --> 74,
(23,26) --> 10,
(23,27) --> 25,
(23,28) --> 80,
(23,29) --> 25,
(23,30) --> 80,
(23,31) --> 79,
(23,32) --> 6,
(23,33) --> 4,
(24,0) --> 71,
(24,1) --> 26,
(24,2) --> 31,
(24,3) --> 8,
(24,4) --> 26,
(24,5) --> 53,
(24,6) --> 54,
(24,7) --> 30,
(24,8) --> 23,
(24,9) --> 5,
(24,10) --> 27,
(24,11) --> 91,
(24,12) --> 22,
(24,13) --> 58,
(24,14) --> 5,
(24,15) --> 59,
(24,16) --> 5,
(24,17) --> 56,
(24,18) --> 23,
(24,19) --> 25,
(24,20) --> 25,
(24,21) --> 30,
(24,22) --> 31,
(24,23) --> 27,
(24,24) --> 0,
(24,25) --> 52,
(24,26) --> 20,
(24,27) --> 6,
(24,28) --> 57,
(24,29) --> 4,
(24,30) --> 93,
(24,31) --> 57,
(24,32) --> 30,
(24,33) --> 29,
(25,0) --> 46,
(25,1) --> 27,
(25,2) --> 68,
(25,3) --> 53,
(25,4) --> 67,
(25,5) --> 4,
(25,6) --> 3,
(25,7) --> 67,
(25,8) --> 66,
(25,9) --> 47,
(25,10) --> 74,
(25,11) --> 86,
(25,12) --> 60,
(25,13) --> 9,
(25,14) --> 48,
(25,15) --> 7,
(25,16) --> 47,
(25,17) --> 4,
(25,18) --> 29,
(25,19) --> 27,
(25,20) --> 67,
(25,21) --> 67,
(25,22) --> 73,
(25,23) --> 74,
(25,24) --> 52,
(25,25) --> 0,
(25,26) --> 63,
(25,27) --> 51,
(25,28) --> 8,
(25,29) --> 52,
(25,30) --> 97,
(25,31) --> 5,
(25,32) --> 73,
(25,33) --> 73,
(26,0) --> 69,
(26,1) --> 36,
(26,2) --> 12,
(26,3) --> 13,
(26,4) --> 6,
(26,5) --> 63,
(26,6) --> 65,
(26,7) --> 11,
(26,8) --> 4,
(26,9) --> 24,
(26,10) --> 10,
(26,11) --> 79,
(26,12) --> 6,
(26,13) --> 71,
(26,14) --> 24,
(26,15) --> 71,
(26,16) --> 23,
(26,17) --> 67,
(26,18) --> 37,
(26,19) --> 37,
(26,20) --> 6,
(26,21) --> 11,
(26,22) --> 12,
(26,23) --> 10,
(26,24) --> 20,
(26,25) --> 63,
(26,26) --> 0,
(26,27) --> 16,
(26,28) --> 70,
(26,29) --> 17,
(26,30) --> 78,
(26,31) --> 68,
(26,32) --> 11,
(26,33) --> 10,
(27,0) --> 66,
(27,1) --> 24,
(27,2) --> 26,
(27,3) --> 2,
(27,4) --> 22,
(27,5) --> 51,
(27,6) --> 53,
(27,7) --> 25,
(27,8) --> 19,
(27,9) --> 8,
(27,10) --> 25,
(27,11) --> 85,
(27,12) --> 16,
(27,13) --> 58,
(27,14) --> 9,
(27,15) --> 58,
(27,16) --> 8,
(27,17) --> 55,
(27,18) --> 23,
(27,19) --> 24,
(27,20) --> 21,
(27,21) --> 25,
(27,22) --> 27,
(27,23) --> 25,
(27,24) --> 6,
(27,25) --> 51,
(27,26) --> 16,
(27,27) --> 0,
(27,28) --> 57,
(27,29) --> 2,
(27,30) --> 87,
(27,31) --> 56,
(27,32) --> 26,
(27,33) --> 26,
(28,0) --> 52,
(28,1) --> 34,
(28,2) --> 75,
(28,3) --> 59,
(28,4) --> 74,
(28,5) --> 11,
(28,6) --> 9,
(28,7) --> 74,
(28,8) --> 73,
(28,9) --> 52,
(28,10) --> 80,
(28,11) --> 93,
(28,12) --> 67,
(28,13) --> 1,
(28,14) --> 53,
(28,15) --> 6,
(28,16) --> 52,
(28,17) --> 5,
(28,18) --> 34,
(28,19) --> 33,
(28,20) --> 74,
(28,21) --> 74,
(28,22) --> 80,
(28,23) --> 80,
(28,24) --> 57,
(28,25) --> 8,
(28,26) --> 70,
(28,27) --> 57,
(28,28) --> 0,
(28,29) --> 57,
(28,30) --> 105,
(28,31) --> 4,
(28,32) --> 80,
(28,33) --> 80,
(29,0) --> 68,
(29,1) --> 25,
(29,2) --> 28,
(29,3) --> 4,
(29,4) --> 23,
(29,5) --> 52,
(29,6) --> 53,
(29,7) --> 26,
(29,8) --> 20,
(29,9) --> 7,
(29,10) --> 25,
(29,11) --> 87,
(29,12) --> 18,
(29,13) --> 58,
(29,14) --> 8,
(29,15) --> 59,
(29,16) --> 7,
(29,17) --> 55,
(29,18) --> 23,
(29,19) --> 24,
(29,20) --> 22,
(29,21) --> 26,
(29,22) --> 28,
(29,23) --> 25,
(29,24) --> 4,
(29,25) --> 52,
(29,26) --> 17,
(29,27) --> 2,
(29,28) --> 57,
(29,29) --> 0,
(29,30) --> 89,
(29,31) --> 56,
(29,32) --> 27,
(29,33) --> 26,
(30,0) --> 57,
(30,1) --> 85,
(30,2) --> 67,
(30,3) --> 85,
(30,4) --> 73,
(30,5) --> 93,
(30,6) --> 95,
(30,7) --> 68,
(30,8) --> 76,
(30,9) --> 94,
(30,10) --> 80,
(30,11) --> 18,
(30,12) --> 73,
(30,13) --> 106,
(30,14) --> 95,
(30,15) --> 100,
(30,16) --> 93,
(30,17) --> 100,
(30,18) --> 92,
(30,19) --> 89,
(30,20) --> 74,
(30,21) --> 68,
(30,22) --> 72,
(30,23) --> 80,
(30,24) --> 93,
(30,25) --> 97,
(30,26) --> 78,
(30,27) --> 87,
(30,28) --> 105,
(30,29) --> 89,
(30,30) --> 0,
(30,31) --> 100,
(30,32) --> 74,
(30,33) --> 76,
(31,0) --> 48,
(31,1) --> 32,
(31,2) --> 73,
(31,3) --> 57,
(31,4) --> 72,
(31,5) --> 7,
(31,6) --> 5,
(31,7) --> 72,
(31,8) --> 71,
(31,9) --> 52,
(31,10) --> 79,
(31,11) --> 89,
(31,12) --> 65,
(31,13) --> 6,
(31,14) --> 52,
(31,15) --> 3,
(31,16) --> 52,
(31,17) --> 1,
(31,18) --> 33,
(31,19) --> 32,
(31,20) --> 72,
(31,21) --> 72,
(31,22) --> 78,
(31,23) --> 79,
(31,24) --> 57,
(31,25) --> 5,
(31,26) --> 68,
(31,27) --> 56,
(31,28) --> 4,
(31,29) --> 56,
(31,30) --> 100,
(31,31) --> 0,
(31,32) --> 78,
(31,33) --> 78,
(32,0) --> 73,
(32,1) --> 46,
(32,2) --> 9,
(32,3) --> 24,
(32,4) --> 6,
(32,5) --> 72,
(32,6) --> 74,
(32,7) --> 8,
(32,8) --> 7,
(32,9) --> 34,
(32,10) --> 6,
(32,11) --> 78,
(32,12) --> 13,
(32,13) --> 81,
(32,14) --> 35,
(32,15) --> 80,
(32,16) --> 34,
(32,17) --> 77,
(32,18) --> 48,
(32,19) --> 47,
(32,20) --> 6,
(32,21) --> 8,
(32,22) --> 2,
(32,23) --> 6,
(32,24) --> 30,
(32,25) --> 73,
(32,26) --> 11,
(32,27) --> 26,
(32,28) --> 80,
(32,29) --> 27,
(32,30) --> 74,
(32,31) --> 78,
(32,32) --> 0,
(32,33) --> 2,
(33,0) --> 75,
(33,1) --> 46,
(33,2) --> 10,
(33,3) --> 23,
(33,4) --> 7,
(33,5) --> 73,
(33,6) --> 74,
(33,7) --> 10,
(33,8) --> 7,
(33,9) --> 34,
(33,10) --> 4,
(33,11) --> 80,
(33,12) --> 13,
(33,13) --> 81,
(33,14) --> 34,
(33,15) --> 80,
(33,16) --> 33,
(33,17) --> 77,
(33,18) --> 48,
(33,19) --> 47,
(33,20) --> 6,
(33,21) --> 10,
(33,22) --> 4,
(33,23) --> 4,
(33,24) --> 29,
(33,25) --> 73,
(33,26) --> 10,
(33,27) --> 26,
(33,28) --> 80,
(33,29) --> 26,
(33,30) --> 76,
(33,31) --> 78,
(33,32) --> 2,
(33,33) --> 0)
letting orderWeights be function (
1 --> 6
,
2 --> 12
,
3 --> 2
,
4 --> 24
,
5 --> 3
,
6 --> 18
,
7 --> 21
,
8 --> 14
,
9 --> 69
,
10 --> 1
,
11 --> 13
,
12 --> 2
,
13 --> 2
,
14 --> 7
,
15 --> 7
,
16 --> 1
,
17 --> 23
,
18 --> 19
,
19 --> 14
,
20 --> 8
,
21 --> 11
,
22 --> 4
,
23 --> 8
,
24 --> 24
,
25 --> 12
,
26 --> 9
,
27 --> 4
,
28 --> 19
,
29 --> 15
,
30 --> 2
,
31 --> 2
,
32 --> 15
,
33 --> 66
)
letting vehicleCapacity be 100
